NAME : random_6
COMMENT : 40 random nodes
TYPE : TSP
DIMENSION : 40
EDGE_WEIGHT_TYPE : EUC_2D
NODE_COORD_SECTION
1 792 552
2 944 50
3 53 706
4 131 812
5 946 437
6 715 597
7 17 599
8 431 886
9 905 563
10 807 364
11 940 367
12 323 185
13 859 610
14 307 732
15 218 716
16 746 99
17 215 161
18 455 224
19 259 380
20 568 118
21 469 998
22 218 591
23 738 898
24 212 227
25 496 671
26 908 802
27 193 90
28 929 891
29 838 419
30 989 928
31 251 923
32 599 163
33 227 361
34 913 977
35 847 509
36 347 128
37 798 436
38 881 405
39 996 600
40 941 773
EOF